[[93, 92, 91, 83, 82, 73, 84, 85, 74, 75, 76, 77, 78, 68, 67, 66, 59, 58, 57, 56, 65, 64, 55, 46, 47, 38, 39, 48, 49, 50, 40, 41, 32, 28, 29, 37, 30, 31], [21, 22, 19, 20, 13, 12, 11, 10, 2, 3, 4, 14, 5, 6, 7, 8, 9, 16, 15, 23, 24, 25, 17, 18, 26, 27, 35, 36, 44], [34, 33, 42, 43, 45, 54, 53, 52, 51, 60, 61, 62, 63, 72, 71, 70, 69, 80, 81, 79, 88, 89, 90, 99, 98, 97, 87, 96, 86, 95, 94]]